p edge 221 216
e 1 2
e 1 3
e 1 4
e 1 5
e 1 6
e 1 7
e 1 8
e 1 9
e 1 10
e 1 11
e 1 12
e 1 13
e 1 14
e 1 15
e 1 16
e 1 17
e 1 18
e 1 19
e 1 20
e 1 21
e 1 22
e 1 23
e 1 24
e 1 25
e 1 26
e 1 27
e 1 28
e 1 29
e 1 30
e 1 31
e 1 32
e 1 33
e 34 35
e 34 36
e 34 37
e 34 38
e 34 39
e 34 40
e 34 41
e 34 42
e 34 43
e 34 44
e 34 45
e 34 46
e 34 47
e 34 48
e 34 49
e 34 50
e 34 51
e 34 52
e 34 53
e 34 54
e 34 55
e 34 56
e 34 57
e 34 58
e 34 59
e 34 60
e 61 62
e 61 63
e 61 64
e 61 65
e 61 66
e 61 67
e 61 68
e 61 69
e 61 70
e 61 71
e 61 72
e 61 73
e 61 74
e 61 75
e 61 76
e 61 77
e 61 78
e 61 79
e 61 80
e 61 81
e 61 82
e 61 83
e 61 84
e 61 85
e 61 86
e 61 87
e 61 88
e 61 89
e 61 90
e 61 91
e 61 92
e 61 93
e 61 94
e 61 95
e 61 96
e 61 97
e 98 99
e 98 100
e 98 101
e 98 102
e 98 103
e 98 104
e 98 105
e 98 106
e 98 107
e 98 108
e 98 109
e 98 110
e 98 111
e 98 112
e 98 113
e 98 114
e 98 115
e 98 116
e 98 117
e 98 118
e 98 119
e 98 120
e 98 121
e 98 122
e 98 123
e 98 124
e 98 125
e 98 126
e 98 127
e 98 128
e 98 129
e 98 130
e 98 131
e 98 132
e 98 133
e 98 134
e 98 135
e 98 136
e 98 137
e 98 138
e 98 139
e 98 140
e 98 141
e 98 142
e 98 143
e 98 144
e 98 145
e 98 146
e 98 147
e 98 148
e 98 149
e 98 150
e 98 151
e 98 152
e 98 153
e 98 154
e 98 155
e 98 156
e 98 157
e 98 158
e 98 159
e 98 160
e 98 161
e 98 162
e 98 163
e 98 164
e 98 165
e 98 166
e 98 167
e 98 168
e 98 169
e 98 170
e 98 171
e 98 172
e 98 173
e 98 174
e 98 175
e 176 177
e 176 178
e 176 179
e 176 180
e 176 181
e 176 182
e 176 183
e 176 184
e 176 185
e 176 186
e 176 187
e 176 188
e 176 189
e 176 190
e 176 191
e 176 192
e 176 193
e 176 194
e 176 195
e 176 196
e 176 197
e 176 198
e 176 199
e 176 200
e 176 201
e 176 202
e 176 203
e 176 204
e 176 205
e 176 206
e 176 207
e 176 208
e 176 209
e 176 210
e 176 211
e 176 212
e 176 213
e 176 214
e 176 215
e 176 216
e 176 217
e 176 218
e 176 219
e 176 220
e 176 221
